(set-logic HORN)
(set-info :source |
    Benchmark: C_VC
    Output by Princess (http://www.philipp.ruemmer.org/princess.shtml)
|)
(set-info :status sat)
;===============================================================================
; Encoding of Heap sorts and operations
;-------------------------------------------------------------------------------
(define-sort Addr() Int)
(declare-datatypes ((AddrRange 0))
                   (((AddrRange (AddrRangeStart Addr) (AddrRangeSize Int)))))

(declare-datatypes ((HeapObject 0))
                   (((O_Int (getInt Int)) (O_UInt (getUInt Int)) (O_Addr (getAddr Addr)) (defObj))))
(declare-datatypes ((BatchAllocResHeap 0) (AllocResHeap 0) (Heap 0))
                   (((BatchAllocResHeap   (newBatchHeap Heap) (newAddrRange AddrRange)))
                   ((AllocResHeap   (newHeap Heap) (newAddr Addr)))
                    ((HeapCtor (HeapSize Int)
                               (HeapContents (Array Addr HeapObject))))))
(define-fun nullAddr  () Addr 0)
(define-fun validHeap     ((h Heap) (p Addr)) Bool
  (and (>= (HeapSize h) p) (> p 0)))
(define-fun emptyHeap () Heap (
  HeapCtor 0 (( as const (Array Addr HeapObject)) defObj)))
(define-fun readHeap ((h Heap) (p Addr)) HeapObject
  (ite (validHeap h p)
       (select (HeapContents h) p)
       defObj))
(define-fun writeHeap ((h Heap) (p Addr) (o HeapObject)) Heap
  (ite (validHeap h p)
       (HeapCtor (HeapSize h) (store (HeapContents h) p o))
       h))
(define-fun allocHeap   ((h Heap) (o HeapObject)) AllocResHeap
  (AllocResHeap (HeapCtor (+ 1 (HeapSize h))
                    (store (HeapContents h) (+ 1 (HeapSize h)) o))
          (+ 1 (HeapSize h))))
(define-fun Heap-eq     ((h1 Heap) (h2 Heap)) Bool
  (forall ((p Addr))
          (and (= (validHeap h1 p) (validHeap h2 p))
               (= (readHeap h1 p) (readHeap h2 p)))))
(define-fun nthAddrRange((ar AddrRange) (n Int)) Addr
  (ite (and (>= n 0) (< n (AddrRangeSize ar)))
       (+ (AddrRangeStart ar) n)
       nullAddr))
(define-fun withinHeap ((ar AddrRange ) (p Addr)) Bool
  (and (>= p (AddrRangeStart ar)) (< p (+ (AddrRangeStart ar) (AddrRangeSize ar)))))

(declare-fun batchAllocHeap     (Heap Heap HeapObject Int Int) Bool)
(declare-fun batchAllocPostHeap (Heap Heap HeapObject Int) Bool)

(assert (forall ((h1 Heap) (h2 Heap) (o HeapObject) (n1 Int) (n2 Int))
                (=> (and (> n2 0) (batchAllocHeap h1 h2 o n1 n2))
                   (batchAllocHeap h1 (newHeap (allocHeap h2 o)) o n1 (- n2 1)))))
(assert (forall ((h1 Heap) (h2 Heap) (o HeapObject) (n1 Int) (n2 Int))
                (=> (and (<= n2 0) (batchAllocHeap h1 h2 o n1 n2))
                   (batchAllocPostHeap h1 h2 o n1))))

(declare-fun batchWriteHeap     (Heap Heap Addr Addr HeapObject Int Int) Bool)
(declare-fun batchWritePostHeap (Heap Heap Addr HeapObject Int) Bool)

(assert (forall ((h1 Heap) (h2 Heap) (a1 Addr) (a2 Addr) (o HeapObject) (n1 Int) (n2 Int))
                (=> (and (> n2 0) (batchWriteHeap h1 h2 a1 a2 o n1 n2))
                   (batchWriteHeap h1 (writeHeap h2 a2 o) a1 (+ a2 1) o n1 (- n2 1)))))
(assert (forall ((h1 Heap) (h2 Heap) (a1 Addr) (a2 Addr) (o HeapObject) (n1 Int) (n2 Int))
                (=> (and (<= n2 0) (batchWriteHeap h1 h2 a1 a2 o n1 n2))
                   (batchWritePostHeap h1 h2 a1 o n1))))

;===============================================================================
(declare-fun inv_main11 (Heap AddrRange Int Int) Bool)
(declare-fun inv_main13 (Heap AddrRange Int Int) Bool)
(declare-fun inv_main14 (Heap AddrRange Int Int) Bool)
(declare-fun inv_main16 (Heap AddrRange Int Int) Bool)
(declare-fun inv_main19 (Heap AddrRange Int Int Int) Bool)
(declare-fun inv_main24 (Heap AddrRange Int Int) Bool)
(declare-fun inv_main26 (Heap AddrRange Int Int) Bool)
(declare-fun inv_main29 (Heap AddrRange Int Int Int) Bool)
(declare-fun inv_main4 (Heap AddrRange Int) Bool)
(assert (forall ((var0 Int) (var1 AddrRange) (var2 Int) (var3 Heap) (var4 Heap)) (or (not (and (batchAllocHeapPostHeap emptyHeap var3 (O_Int var2) 100000) (and (and (= var4 emptyHeap) (= var1 (AddrRange (ite (<= 0 99999) (+ (HeapSize emptyHeap) 1) (HeapSize emptyHeap)) 100000))) true))) (inv_main4 var3 var1 var0))))
(assert (forall ((var0 Int) (var1 AddrRange) (var2 Int) (var3 Heap) (var4 Heap)) (or (not (and (and (= var4 emptyHeap) (= var1 (AddrRange (ite (<= 0 99999) (+ (HeapSize emptyHeap) 1) (HeapSize emptyHeap)) 100000))) true)) (batchAllocHeap emptyHeap emptyHeap (O_Int var2) 100000 100000))))
(assert (forall ((var0 Int) (var1 Int) (var2 AddrRange) (var3 Heap)) (or (not (and (and (inv_main13 var3 var2 var1 var0) (not (<= 0 (+ (+ (* (- 1) var1) var0) (* (- 1) 1))))) (<= 0 (+ var0 (* (- 1) 1))))) (inv_main24 var3 var2 0 var0))))
(assert (forall ((var0 AddrRange) (var1 Heap) (var2 Int) (var3 Int) (var4 Int) (var5 Int) (var6 Int) (var7 AddrRange) (var8 Heap) (var9 Int) (var10 Int)) (or (not (and (and (and (and (and (and (and (and (and (and (and (and (and (inv_main24 var8 var7 var6 var5) (= var2 (getInt (readHeap var8 (nthAddrRange var7 var6))))) (= var4 var5)) (= var3 var6)) (= var0 var7)) (= var1 var8)) (is-O_Int (readHeap var8 (nthAddrRange var7 var6)))) (= var9 0)) (= var2 (+ (* 2 var10) var9))) (or (not (<= 0 (+ (* (- 1) var9) (* (- 1) 1)))) (<= 0 (+ (* (- 1) var2) (* (- 1) 1))))) (or (not (<= 0 (+ var9 (* (- 1) 1)))) (<= 0 (+ var2 (* (- 1) 1))))) (<= 0 (+ (+ (* 1 var9) 2) (* (- 1) 1)))) (<= 0 (+ (+ (* (- 1) var9) 2) (* (- 1) 1)))) (<= 0 (+ (+ (* (- 1) (+ var3 1)) var4) (* (- 1) 1))))) (inv_main24 var1 var0 (+ var3 1) var4))))
(assert (forall ((var0 Int) (var1 Int) (var2 Int) (var3 AddrRange) (var4 Heap)) (or (not (and (inv_main29 var4 var3 var2 var1 var0) (<= 0 (+ (+ (* (- 1) (+ var2 1)) var1) (* (- 1) 1))))) (inv_main24 var4 var3 (+ var2 1) var1))))
(assert (forall ((var0 Int) (var1 Int) (var2 AddrRange) (var3 Heap)) (or (not (and (inv_main26 var3 var2 var1 var0) (is-O_Int (readHeap var3 (nthAddrRange var2 var1))))) (inv_main29 var3 var2 var1 var0 (getInt (readHeap var3 (nthAddrRange var2 var1)))))))
(assert (forall ((var0 Int) (var1 Int) (var2 AddrRange) (var3 Heap)) (or (not (and (inv_main16 var3 var2 var1 var0) (is-O_Int (readHeap var3 (nthAddrRange var2 var1))))) (inv_main19 var3 var2 var1 var0 (getInt (readHeap var3 (nthAddrRange var2 var1)))))))
(assert (forall ((var0 Int) (var1 Int) (var2 AddrRange) (var3 Heap) (var4 Int) (var5 Int) (var6 Int) (var7 AddrRange) (var8 Heap) (var9 Int) (var10 Int)) (or (not (and (and (and (and (and (and (and (and (and (and (and (and (inv_main14 var8 var7 var6 var5) (= var4 (getInt (readHeap var8 (nthAddrRange var7 var6))))) (= var0 var5)) (= var1 var6)) (= var2 var7)) (= var3 var8)) (is-O_Int (readHeap var8 (nthAddrRange var7 var6)))) (= var9 0)) (= var4 (+ (* 2 var10) var9))) (or (not (<= 0 (+ (* (- 1) var9) (* (- 1) 1)))) (<= 0 (+ (* (- 1) var4) (* (- 1) 1))))) (or (not (<= 0 (+ var9 (* (- 1) 1)))) (<= 0 (+ var4 (* (- 1) 1))))) (<= 0 (+ (+ (* 1 var9) 2) (* (- 1) 1)))) (<= 0 (+ (+ (* (- 1) var9) 2) (* (- 1) 1))))) (inv_main16 var3 var2 var1 var0))))
(assert (forall ((var0 Int) (var1 Int) (var2 AddrRange) (var3 Heap)) (or (not (and (inv_main13 var3 var2 var1 var0) (<= 0 (+ (+ (* (- 1) var1) var0) (* (- 1) 1))))) (inv_main14 var3 var2 var1 var0))))
(assert (forall ((var0 AddrRange) (var1 Int) (var2 Heap) (var3 Int) (var4 Int) (var5 Int) (var6 Int) (var7 AddrRange) (var8 Heap)) (or (not (and (and (and (and (and (and (and (inv_main11 var8 var7 var6 var5) (= var4 var5)) (= var3 var6)) (= var0 var7)) (= var2 (writeHeap var8 (nthAddrRange var7 var6) (O_Int var1)))) (is-O_Int (readHeap var8 (nthAddrRange var7 var6)))) (is-O_Int (readHeap var8 (nthAddrRange var7 var6)))) (<= 0 (+ (+ (* (- 1) (+ var3 1)) var4) (* (- 1) 1))))) (inv_main11 var2 var0 (+ var3 1) var4))))
(assert (forall ((var0 Int) (var1 Int) (var2 AddrRange) (var3 Heap)) (or (not (and (inv_main4 var3 var2 var1) (<= 0 (+ var0 (* (- 1) 1))))) (inv_main11 var3 var2 0 var0))))
(assert (forall ((var0 Int) (var1 Int) (var2 AddrRange) (var3 Heap) (var4 Int) (var5 Int) (var6 Int) (var7 AddrRange) (var8 Heap) (var9 Int) (var10 Int)) (or (not (and (and (and (and (and (and (and (inv_main24 var8 var7 var6 var5) (= var4 (getInt (readHeap var8 (nthAddrRange var7 var6))))) (= var0 var5)) (= var1 var6)) (= var2 var7)) (= var3 var8)) (is-O_Int (readHeap var8 (nthAddrRange var7 var6)))) (not (or (not (and (and (and (and (or (not (<= 0 (+ (* (- 1) var9) (* (- 1) 1)))) (<= 0 (+ (* (- 1) var4) (* (- 1) 1)))) (or (not (<= 0 (+ var9 (* (- 1) 1)))) (<= 0 (+ var4 (* (- 1) 1))))) (<= 0 (+ (+ (* 1 var9) 2) (* (- 1) 1)))) (<= 0 (+ (+ (* (- 1) var9) 2) (* (- 1) 1)))) (= var4 (+ (* 2 var10) var9)))) (= var9 0))))) (inv_main26 var3 var2 var1 var0))))
(assert (forall ((var0 AddrRange) (var1 Int) (var2 Heap) (var3 Int) (var4 Int) (var5 Int) (var6 Int) (var7 AddrRange) (var8 Heap)) (or (not (and (and (and (and (and (and (and (inv_main11 var8 var7 var6 var5) (= var4 var5)) (= var3 var6)) (= var0 var7)) (= var2 (writeHeap var8 (nthAddrRange var7 var6) (O_Int var1)))) (is-O_Int (readHeap var8 (nthAddrRange var7 var6)))) (is-O_Int (readHeap var8 (nthAddrRange var7 var6)))) (not (<= 0 (+ (+ (* (- 1) (+ var3 1)) var4) (* (- 1) 1)))))) (inv_main13 var2 var0 0 var4))))
(assert (forall ((var0 Int) (var1 Int) (var2 AddrRange) (var3 Heap) (var4 Int) (var5 Int) (var6 Int) (var7 AddrRange) (var8 Heap) (var9 Int) (var10 Int)) (or (not (and (and (and (and (and (and (and (inv_main14 var8 var7 var6 var5) (= var4 (getInt (readHeap var8 (nthAddrRange var7 var6))))) (= var0 var5)) (= var1 var6)) (= var2 var7)) (= var3 var8)) (is-O_Int (readHeap var8 (nthAddrRange var7 var6)))) (not (or (not (and (and (and (and (or (not (<= 0 (+ (* (- 1) var9) (* (- 1) 1)))) (<= 0 (+ (* (- 1) var4) (* (- 1) 1)))) (or (not (<= 0 (+ var9 (* (- 1) 1)))) (<= 0 (+ var4 (* (- 1) 1))))) (<= 0 (+ (+ (* 1 var9) 2) (* (- 1) 1)))) (<= 0 (+ (+ (* (- 1) var9) 2) (* (- 1) 1)))) (= var4 (+ (* 2 var10) var9)))) (= var9 0))))) (inv_main13 var3 var2 (+ var1 1) var0))))
(assert (forall ((var0 Int) (var1 Int) (var2 Int) (var3 AddrRange) (var4 Heap)) (or (not (inv_main19 var4 var3 var2 var1 var0)) (inv_main13 var4 var3 (+ var2 1) var1))))
(assert (forall ((var0 Int) (var1 Int) (var2 AddrRange) (var3 Heap)) (or (not (and (inv_main4 var3 var2 var1) (not (<= 0 (+ var0 (* (- 1) 1)))))) (inv_main13 var3 var2 0 var0))))
(assert (forall ((var0 Int) (var1 Int) (var2 AddrRange) (var3 Heap)) (not (and (inv_main11 var3 var2 var1 var0) (not (is-O_Int (readHeap var3 (nthAddrRange var2 var1))))))))
(assert (forall ((var0 Int) (var1 Int) (var2 AddrRange) (var3 Heap)) (not (and (and (inv_main11 var3 var2 var1 var0) (not (withinHeap var2 (nthAddrRange var2 var1)))) (is-O_Int (readHeap var3 (nthAddrRange var2 var1)))))))
(assert (forall ((var0 Int) (var1 Int) (var2 AddrRange) (var3 Heap)) (not (and (and (inv_main11 var3 var2 var1 var0) (not (is-O_Int (readHeap var3 (nthAddrRange var2 var1))))) (is-O_Int (readHeap var3 (nthAddrRange var2 var1)))))))
(assert (forall ((var0 Int) (var1 Int) (var2 AddrRange) (var3 Heap)) (not (and (inv_main14 var3 var2 var1 var0) (not (is-O_Int (readHeap var3 (nthAddrRange var2 var1))))))))
(assert (forall ((var0 Int) (var1 Int) (var2 AddrRange) (var3 Heap)) (not (and (and (inv_main14 var3 var2 var1 var0) (not (withinHeap var2 (nthAddrRange var2 var1)))) (is-O_Int (readHeap var3 (nthAddrRange var2 var1)))))))
(assert (forall ((var0 Int) (var1 Int) (var2 AddrRange) (var3 Heap)) (not (and (inv_main16 var3 var2 var1 var0) (not (is-O_Int (readHeap var3 (nthAddrRange var2 var1))))))))
(assert (forall ((var0 Int) (var1 Int) (var2 AddrRange) (var3 Heap)) (not (and (and (inv_main16 var3 var2 var1 var0) (not (withinHeap var2 (nthAddrRange var2 var1)))) (is-O_Int (readHeap var3 (nthAddrRange var2 var1)))))))
(assert (forall ((var0 Int) (var1 Int) (var2 Int) (var3 AddrRange) (var4 Heap) (var5 Int) (var6 Int)) (not (and (inv_main19 var4 var3 var2 var1 var0) (not (or (not (and (and (and (and (or (not (<= 0 (+ (* (- 1) var5) (* (- 1) 1)))) (<= 0 (+ (* (- 1) var0) (* (- 1) 1)))) (or (not (<= 0 (+ var5 (* (- 1) 1)))) (<= 0 (+ var0 (* (- 1) 1))))) (<= 0 (+ (+ (* 1 var5) 2) (* (- 1) 1)))) (<= 0 (+ (+ (* (- 1) var5) 2) (* (- 1) 1)))) (= var0 (+ (* 2 var6) var5)))) (= var5 0)))))))
(assert (forall ((var0 Int) (var1 Int) (var2 AddrRange) (var3 Heap)) (not (and (inv_main24 var3 var2 var1 var0) (not (is-O_Int (readHeap var3 (nthAddrRange var2 var1))))))))
(assert (forall ((var0 Int) (var1 Int) (var2 AddrRange) (var3 Heap)) (not (and (and (inv_main24 var3 var2 var1 var0) (not (withinHeap var2 (nthAddrRange var2 var1)))) (is-O_Int (readHeap var3 (nthAddrRange var2 var1)))))))
(assert (forall ((var0 Int) (var1 Int) (var2 AddrRange) (var3 Heap)) (not (and (inv_main26 var3 var2 var1 var0) (not (is-O_Int (readHeap var3 (nthAddrRange var2 var1))))))))
(assert (forall ((var0 Int) (var1 Int) (var2 AddrRange) (var3 Heap)) (not (and (and (inv_main26 var3 var2 var1 var0) (not (withinHeap var2 (nthAddrRange var2 var1)))) (is-O_Int (readHeap var3 (nthAddrRange var2 var1)))))))
(assert (forall ((var0 Int) (var1 Int) (var2 Int) (var3 AddrRange) (var4 Heap) (var5 Int) (var6 Int)) (not (and (and (and (and (and (and (inv_main29 var4 var3 var2 var1 var0) (= var5 0)) (= var0 (+ (* 2 var6) var5))) (or (not (<= 0 (+ (* (- 1) var5) (* (- 1) 1)))) (<= 0 (+ (* (- 1) var0) (* (- 1) 1))))) (or (not (<= 0 (+ var5 (* (- 1) 1)))) (<= 0 (+ var0 (* (- 1) 1))))) (<= 0 (+ (+ (* 1 var5) 2) (* (- 1) 1)))) (<= 0 (+ (+ (* (- 1) var5) 2) (* (- 1) 1)))))))
(check-sat)
